[2026-03-23T15:58:32.715Z] Pipeline "set_exp_3_exp_3_n016_c004_g001" → 2026_03_23_15_58_32_set_exp_3_exp_3_n016_c004_g001_max.sol
Set parameter WLSAccessID
Set parameter WLSSecret
Set parameter LicenseID to value 2792458
Set parameter LogFile to value "gurobi.log"
Using license file /root/gurobi.lic
Academic license 2792458 - for non-commercial use only - registered to an___@studenti.unipg.it

Gurobi Optimizer version 13.0.1 build v13.0.1rc0 (linux64 - "Ubuntu 24.04.4 LTS")
Copyright (c) 2026, Gurobi Optimization, LLC

Warning: Duplicate section found (read 'binary') - Is a variable name equal to an LP file format keyword?
Warning: Duplicate section found (read 'binary') - Is a variable name equal to an LP file format keyword?
Warning: Duplicate section found (read 'binary') - Is a variable name equal to an LP file format keyword?
Warning: Duplicate section found (read 'binary') - Is a variable name equal to an LP file format keyword?
Warning: Duplicate section found (read 'binary') - Is a variable name equal to an LP file format keyword?
Warning: Duplicate section found (read 'binary') - Is a variable name equal to an LP file format keyword?
Warning: Duplicate section found (read 'binary') - Is a variable name equal to an LP file format keyword?
Warning: Duplicate section found (read 'binary') - Is a variable name equal to an LP file format keyword?
Warning: Duplicate section found (read 'binary') - Is a variable name equal to an LP file format keyword?
Warning: Duplicate section found (read 'binary') - Is a variable name equal to an LP file format keyword?
Warning: Further warnings of this type will be omitted.
Read LP format model from file /root/bgw/data/uploads/2026_03_23_15_58_32_set_exp_3_exp_3_n016_c004_g001_max.lp
Reading time = 0.00 seconds
: 1364 rows, 192 columns, 4080 nonzeros

Using Gurobi shared library /opt/gurobi1301/linux64/lib/libgurobi.so.13.0.1

CPU model: AMD EPYC-Genoa Processor, instruction set [SSE2|AVX|AVX2|AVX512]
Thread count: 16 physical cores, 16 logical processors, using up to 16 threads

Academic license 2792458 - for non-commercial use only - registered to an___@studenti.unipg.it
Optimize a model with 1364 rows, 192 columns and 4080 nonzeros (Max)
Model fingerprint: 0xbf7d7262
Model has 4 linear objective coefficients
Variable types: 20 continuous, 172 integer (172 binary)
Coefficient statistics:
  Matrix range     [1e+00, 2e+01]
  Objective range  [1e+00, 1e+00]
  Bounds range     [1e+00, 1e+00]
  RHS range        [1e+00, 2e+01]

Found heuristic solution: objective 4.0000000
Presolve removed 217 rows and 55 columns
Presolve time: 0.00s
Presolved: 1147 rows, 137 columns, 3532 nonzeros
Variable types: 0 continuous, 137 integer (130 binary)

Root relaxation: objective 1.600000e+01, 114 iterations, 0.00 seconds (0.00 work units)

    Nodes    |    Current Node    |     Objective Bounds      |     Work
 Expl Unexpl |  Obj  Depth IntInf | Incumbent    BestBd   Gap | It/Node Time

     0     0   16.00000    0   24    4.00000   16.00000   300%     -    0s
H    0     0                       9.0000000   16.00000  77.8%     -    0s
H    0     0                      10.0000000   16.00000  60.0%     -    0s
H    0     0                      11.0000000   16.00000  45.5%     -    0s
     0     0   16.00000    0   24   11.00000   16.00000  45.5%     -    0s
H    0     0                      12.0000000   16.00000  33.3%     -    0s
     0     0   16.00000    0   25   12.00000   16.00000  33.3%     -    0s
     0     0   16.00000    0   24   12.00000   16.00000  33.3%     -    0s
     0     0   16.00000    0   27   12.00000   16.00000  33.3%     -    0s
     0     0   16.00000    0   25   12.00000   16.00000  33.3%     -    0s
     0     0   16.00000    0   26   12.00000   16.00000  33.3%     -    0s
     0     0   16.00000    0   24   12.00000   16.00000  33.3%     -    0s
     0     0   16.00000    0   24   12.00000   16.00000  33.3%     -    0s
     0     0   16.00000    0   24   12.00000   16.00000  33.3%     -    0s
     0     0   16.00000    0   21   12.00000   16.00000  33.3%     -    0s
     0     0   15.92857    0   22   12.00000   15.92857  32.7%     -    0s
     0     0   15.78571    0   22   12.00000   15.78571  31.5%     -    0s
     0     0   15.78571    0   21   12.00000   15.78571  31.5%     -    0s
     0     0   15.00000    0   19   12.00000   15.00000  25.0%     -    0s
     0     0   15.00000    0   19   12.00000   15.00000  25.0%     -    0s
     0     0   15.00000    0   19   12.00000   15.00000  25.0%     -    0s
     0     0   15.00000    0   19   12.00000   15.00000  25.0%     -    0s
     0     2   15.00000    0   19   12.00000   15.00000  25.0%     -    0s

Cutting planes:
  Cover: 1
  MIR: 1
  StrongCG: 1
  Zero half: 8

Explored 256 nodes (7631 simplex iterations) in 0.21 seconds (0.18 work units)
Thread count was 16 (of 16 available processors)

Solution count 5: 12 11 10 ... 4

Optimal solution found (tolerance 1.00e-04)
Best objective 1.200000000000e+01, best bound 1.200000000000e+01, gap 0.0000%

Wrote result file '/root/bgw/data/results/2026_03_23_15_58_32_set_exp_3_exp_3_n016_c004_g001_max.sol'

